(set-logic HORN)
(set-info :source |
    Benchmark: C_VC
    Output by Princess (http://www.philipp.ruemmer.org/princess.shtml)
|)
(set-info :status unknown)
(declare-fun inv_main10 (Int Int Int Int Int) Bool)
(declare-fun inv_main18 (Int Int Int Int Int) Bool)
(declare-fun inv_main7 (Int Int Int Int Int) Bool)
(assert (forall ((var0 Int)) (forall ((var1 Int)) (forall ((var2 Int)) (forall ((var3 Int)) (inv_main7 100 var1 var2 var0 var3 ) ) ) ) ) )
(assert (forall ((var0 Int)) (forall ((var1 Int)) (forall ((var2 Int)) (forall ((var3 Int)) (forall ((var4 Int)) (or (not (inv_main7 var4 var2 var3 var1 var0 ) ) (inv_main10 var4 var2 var1 var1 0 ) ) ) ) ) ) ) )
(assert (forall ((var0 Int)) (forall ((var1 Int)) (forall ((var2 Int)) (forall ((var3 Int)) (forall ((var4 Int)) (or (not (and (inv_main10 var4 var2 var3 var1 var0 ) (and (not (= var3 var1 ) ) (not (<= 0 (+ (+ (* 2 var4 ) (* (- 1) var0 ) ) (- 1) ) ) ) ) ) ) (inv_main18 var4 var2 var3 var1 var0 ) ) ) ) ) ) ) )
(assert (forall ((var0 Int)) (forall ((var1 Int)) (forall ((var2 Int)) (forall ((var3 Int)) (forall ((var4 Int)) (or (not (and (inv_main10 var4 var2 var3 var1 var0 ) (and (not (= var2 0 ) ) (<= 0 (+ (+ (* 2 var4 ) (* (- 1) var0 ) ) (- 1) ) ) ) ) ) (or (and (= var2 0 ) (inv_main10 var4 1 (+ var3 1 ) var1 (+ var0 1 ) ) ) (and (not (= var2 0 ) ) (inv_main10 var4 0 (+ var3 1 ) var1 (+ var0 1 ) ) ) ) ) ) ) ) ) ) )
(assert (forall ((var0 Int)) (forall ((var1 Int)) (forall ((var2 Int)) (forall ((var3 Int)) (forall ((var4 Int)) (or (not (and (inv_main10 var4 var2 var3 var1 var0 ) (and (= var2 0 ) (<= 0 (+ (+ (* 2 var4 ) (* (- 1) var0 ) ) (- 1) ) ) ) ) ) (or (and (= var2 0 ) (inv_main10 var4 1 var3 (+ var1 1 ) (+ var0 1 ) ) ) (and (not (= var2 0 ) ) (inv_main10 var4 0 var3 (+ var1 1 ) (+ var0 1 ) ) ) ) ) ) ) ) ) ) )
(assert (forall ((var0 Int)) (forall ((var1 Int)) (forall ((var2 Int)) (forall ((var3 Int)) (forall ((var4 Int)) (not (inv_main18 var4 var2 var3 var1 var0 ) ) ) ) ) ) ) )
(check-sat)
